\ENCODING=ISO-8859-1
\Problem name: Formulacao EEEE :D

Maximize
 obj: x1 + 0 x2 + 0 x7 + 0 x18 + 0 x23 + 0 x28 + 0 x33
Subject To
 c1:  x1 + x13 + x19  = 1
 c2:  x8 + x26 + x32  = 1
 c3:  x3 + x15 + x27  = 1
 c4:  x4 + x22 + x34  = 1
 c5:  x11 + x17 + x29  = 1
 c6:  x12 + x24 + x36  = 1
 c7:  - x1 <= 0
 c8:  - x1 + x3 <= 0
 c9:  - x1 + x4 <= 0
 c10: x13 - x15 <= 0
 c11: x13 - x15 <= 0
 c12: x13 - x15 + x17 <= 0
 c13: x19 + x19 - x22 <= 0
 c14: x19 + x22 - x22 <= 0
 c15: x19 - x22 + x24 <= 0
 c16: x8 + x8 - x8 <= 0
 c17: x8 - x8 + x11 <= 0
 c18: x8 - x8 + x12 <= 0
 c19: x26 + x26 - x29 <= 0
 c20: x26 + x27 - x29 <= 0
 c21: x26 + x29 - x29 <= 0
 c22: x32 + x32 - x36 <= 0
 c23: x32 + x34 - x36 <= 0
 c24: x32 + x36 - x36 <= 0
 c25: x1 - x1 + x3 <= 0
 c26: - x1 + x3 + x3 <= 0
 c27: - x1 + x3 + x4 <= 0
 c28: x13 + x15 - x15 <= 0
 c29: x15 + x15 - x15 <= 0
 c30: x15 - x15 + x17 <= 0
 c31: x26 + x27 - x29 <= 0
 c32: x27 + x27 - x29 <= 0
 c33: x27 + x29 - x29 <= 0
 c34: x1 - x1 + x4 <= 0
 c35: - x1 + x3 + x4 <= 0
 c36: - x1 + x4 + x4 <= 0
 c37: x19 + x22 - x22 <= 0
 c38: x22 + x22 - x22 <= 0
 c39: x22 - x22 + x24 <= 0
 c40: x32 + x34 - x36 <= 0
 c41: x34 + x34 - x36 <= 0
 c42: x34 + x36 - x36 <= 0
 c43: x8 - x8 + x11 <= 0
 c44: - x8 + x11 + x11 <= 0
 c45: - x8 + x11 + x12 <= 0
 c46: x13 - x15 + x17 <= 0
 c47: - x15 + x17 <= 0
 c48: - x15 + x17 <= 0
 c49: x26 - x29 <= 0
 c50: x27 - x29 <= 0
 c51: - x29 <= 0
 c52: - x8 + x12 <= 0
 c53: - x8 + x11 + x12 <= 0
 c54: - x8 + x12 <= 0
 c55: x19 - x22 + x24 <= 0
 c56: - x22 + x24 <= 0
 c57: - x22 + x24 <= 0
 c58: x32 - x36 <= 0
 c59: x34 - x36 <= 0
 c60: - x36 <= 0
 c61: - x1 + x3 + x4 - x8 >= -1
 c62: - x1 + x4 + x6 - x29 >= -1
 c63: - x1 + x3 + x5 - x36 >= -1
 c64: - x1 - x8 + x11 + x12 >= -1
 c65: - x8 + x10 + x12 - x15 >= -1
 c66: - x8 + x9 + x11 - x22 >= -1
 c67: - x8 + x13 - x15 + x16 >= -1
 c68: x14 - x15 + x17 - x22 >= -1
 c69: x13 - x15 + x17 - x36 >= -1
 c70: - x8 + x19 + x21 - x22 >= -1
 c71: - x15 + x20 - x22 + x24 >= -1
 c72: x19 - x22 + x24 - x29 >= -1
 c73: - x1 + x26 - x29 + x30 >= -1
 c74: - x22 + x26 + x27 - x29 >= -1
 c75: x25 + x27 - x29 - x36 >= -1
 c76: - x1 + x32 + x35 - x36 >= -1
 c77: - x15 + x32 + x34 - x36 >= -1
 c78: - x29 + x31 + x34 - x36 >= -1
 c79: - x1 <= 0
 c80: - x1 + x3 <= 0
 c81: - x1 + x4 <= 0
 c82: - x8 <= 0
 c83: - x8 + x11 <= 0
 c84: - x8 + x12 <= 0
 c85: x13 - x15 <= 0
 c86: - x15 <= 0
 c87: - x15 + x17 <= 0
 c88: x19 - x22 <= 0
 c89: - x22 <= 0
 c90: - x22 + x24 <= 0
 c91: x26 - x29 <= 0
 c92: x27 - x29 <= 0
 c93: - x29 <= 0
 c94: x32 - x36 <= 0
 c95: x34 - x36 <= 0
 c96: - x36 <= 0
Bounds
 0 <= x1 <= 1
 0 <= x2 <= 1
 0 <= x3 <= 1
 0 <= x4 <= 1
 0 <= x5 <= 1
 0 <= x6 <= 1
 0 <= x7 <= 1
 0 <= x8 <= 1
 0 <= x9 <= 1
 0 <= x10 <= 1
 0 <= x11 <= 1
 0 <= x12 <= 1
 0 <= x13 <= 1
 0 <= x14 <= 1
 0 <= x15 <= 1
 0 <= x16 <= 1
 0 <= x17 <= 1
 0 <= x18 <= 1
 0 <= x19 <= 1
 0 <= x20 <= 1
 0 <= x21 <= 1
 0 <= x22 <= 1
 0 <= x23 <= 1
 0 <= x24 <= 1
 0 <= x25 <= 1
 0 <= x26 <= 1
 0 <= x27 <= 1
 0 <= x28 <= 1
 0 <= x29 <= 1
 0 <= x30 <= 1
 0 <= x31 <= 1
 0 <= x32 <= 1
 0 <= x33 <= 1
 0 <= x34 <= 1
 0 <= x35 <= 1
 0 <= x36 <= 1
Binaries
 x1  x2  x3  x4  x5  x6  x7  x8  x9  x10  x11  x12  x13  x14  x15  x16  x17 
 x18  x19  x20  x21  x22  x23  x24  x25  x26  x27  x28  x29  x30  x31  x32 
 x33  x34  x35  x36 
End
